NAME : d1291
COMMENT : Drilling problem (Reinelt)
TYPE : TSP
DIMENSION : 1291
EDGE_WEIGHT_TYPE : EUC_2D
NODE_COORD_SECTION
1 0.00000e+00 0.00000e+00
2 8.37000e+02 9.58300e+02
3 8.62400e+02 9.58300e+02
4 8.87800e+02 9.58300e+02
5 9.13200e+02 9.58300e+02
6 9.38600e+02 9.58300e+02
7 9.64000e+02 9.58300e+02
8 9.89400e+02 9.58300e+02
9 1.01480e+03 9.58300e+02
10 1.04020e+03 9.58300e+02
11 1.06560e+03 9.58300e+02
12 1.09100e+03 9.58300e+02
13 1.11640e+03 9.58300e+02
14 1.14180e+03 9.58300e+02
15 1.16720e+03 9.58300e+02
16 1.16720e+03 1.11070e+03
17 1.14180e+03 1.11070e+03
18 1.11640e+03 1.11070e+03
19 1.09100e+03 1.11070e+03
20 1.06560e+03 1.11070e+03
21 1.04020e+03 1.11070e+03
22 1.01480e+03 1.11070e+03
23 9.89400e+02 1.11070e+03
24 9.64000e+02 1.11070e+03
25 9.38600e+02 1.11070e+03
26 9.13200e+02 1.11070e+03
27 8.87800e+02 1.11070e+03
28 8.62400e+02 1.11070e+03
29 8.37000e+02 1.11070e+03
30 8.37000e+02 1.18690e+03
31 8.62400e+02 1.18690e+03
32 8.87800e+02 1.18690e+03
33 9.13200e+02 1.18690e+03
34 9.38600e+02 1.18690e+03
35 9.64000e+02 1.18690e+03
36 9.89400e+02 1.18690e+03
37 1.01480e+03 1.18690e+03
38 1.04020e+03 1.18690e+03
39 1.06560e+03 1.18690e+03
40 1.09100e+03 1.18690e+03
41 1.11640e+03 1.18690e+03
42 1.14180e+03 1.18690e+03
43 1.16720e+03 1.18690e+03
44 1.16720e+03 1.33930e+03
45 1.14180e+03 1.33930e+03
46 1.11640e+03 1.33930e+03
47 1.09100e+03 1.33930e+03
48 1.06560e+03 1.33930e+03
49 1.04020e+03 1.33930e+03
50 1.01480e+03 1.33930e+03
51 9.89400e+02 1.33930e+03
52 9.64000e+02 1.33930e+03
53 9.38600e+02 1.33930e+03
54 9.13200e+02 1.33930e+03
55 8.87800e+02 1.33930e+03
56 8.62400e+02 1.33930e+03
57 8.37000e+02 1.33930e+03
58 8.37000e+02 1.41550e+03
59 8.62400e+02 1.41550e+03
60 8.87800e+02 1.41550e+03
61 9.13200e+02 1.41550e+03
62 9.38600e+02 1.41550e+03
63 9.64000e+02 1.41550e+03
64 9.89400e+02 1.41550e+03
65 1.01480e+03 1.41550e+03
66 1.04020e+03 1.41550e+03
67 1.06560e+03 1.41550e+03
68 1.09100e+03 1.41550e+03
69 1.11640e+03 1.41550e+03
70 1.14180e+03 1.41550e+03
71 1.16720e+03 1.41550e+03
72 1.16720e+03 1.56790e+03
73 1.14180e+03 1.56790e+03
74 1.11640e+03 1.56790e+03
75 1.09100e+03 1.56790e+03
76 1.06560e+03 1.56790e+03
77 1.04020e+03 1.56790e+03
78 1.01480e+03 1.56790e+03
79 9.89400e+02 1.56790e+03
80 9.64000e+02 1.56790e+03
81 9.38600e+02 1.56790e+03
82 9.13200e+02 1.56790e+03
83 8.87800e+02 1.56790e+03
84 8.62400e+02 1.56790e+03
85 8.37000e+02 1.56790e+03
86 8.37000e+02 1.64410e+03
87 8.62400e+02 1.64410e+03
88 8.87800e+02 1.64410e+03
89 9.13200e+02 1.64410e+03
90 9.38600e+02 1.64410e+03
91 9.64000e+02 1.64410e+03
92 9.89400e+02 1.64410e+03
93 1.01480e+03 1.64410e+03
94 1.04020e+03 1.64410e+03
95 1.06560e+03 1.64410e+03
96 1.09100e+03 1.64410e+03
97 1.11640e+03 1.64410e+03
98 1.14180e+03 1.64410e+03
99 1.16720e+03 1.64410e+03
100 1.16720e+03 1.79650e+03
101 1.14180e+03 1.79650e+03
102 1.11640e+03 1.79650e+03
103 1.09100e+03 1.79650e+03
104 1.06560e+03 1.79650e+03
105 1.04020e+03 1.79650e+03
106 1.01480e+03 1.79650e+03
107 9.89400e+02 1.79650e+03
108 9.64000e+02 1.79650e+03
109 9.38600e+02 1.79650e+03
110 9.13200e+02 1.79650e+03
111 8.87800e+02 1.79650e+03
112 8.62400e+02 1.79650e+03
113 8.37000e+02 1.79650e+03
114 8.37000e+02 1.89810e+03
115 8.62400e+02 1.89810e+03
116 8.87800e+02 1.89810e+03
117 9.13200e+02 1.89810e+03
118 9.38600e+02 1.89810e+03
119 9.64000e+02 1.89810e+03
120 9.89400e+02 1.89810e+03
121 1.01480e+03 1.89810e+03
122 1.04020e+03 1.89810e+03
123 1.06560e+03 1.89810e+03
124 1.09100e+03 1.89810e+03
125 1.11640e+03 1.89810e+03
126 1.14180e+03 1.89810e+03
127 1.16720e+03 1.89810e+03
128 1.16720e+03 2.05050e+03
129 1.14180e+03 2.05050e+03
130 1.11640e+03 2.05050e+03
131 1.09100e+03 2.05050e+03
132 1.06560e+03 2.05050e+03
133 1.04020e+03 2.05050e+03
134 1.01480e+03 2.05050e+03
135 9.89400e+02 2.05050e+03
136 9.64000e+02 2.05050e+03
137 9.38600e+02 2.05050e+03
138 9.13200e+02 2.05050e+03
139 8.87800e+02 2.05050e+03
140 8.62400e+02 2.05050e+03
141 8.37000e+02 2.05050e+03
142 8.37000e+02 2.12670e+03
143 8.62400e+02 2.12670e+03
144 8.87800e+02 2.12670e+03
145 9.13200e+02 2.12670e+03
146 9.38600e+02 2.12670e+03
147 9.64000e+02 2.12670e+03
148 9.89400e+02 2.12670e+03
149 1.01480e+03 2.12670e+03
150 1.04020e+03 2.12670e+03
151 1.06560e+03 2.12670e+03
152 1.09100e+03 2.12670e+03
153 1.11640e+03 2.12670e+03
154 1.14180e+03 2.12670e+03
155 1.16720e+03 2.12670e+03
156 1.16720e+03 2.27910e+03
157 1.14180e+03 2.27910e+03
158 1.11640e+03 2.27910e+03
159 1.09100e+03 2.27910e+03
160 1.06560e+03 2.27910e+03
161 1.04020e+03 2.27910e+03
162 1.01480e+03 2.27910e+03
163 9.89400e+02 2.27910e+03
164 9.64000e+02 2.27910e+03
165 9.38600e+02 2.27910e+03
166 9.13200e+02 2.27910e+03
167 8.87800e+02 2.27910e+03
168 8.62400e+02 2.27910e+03
169 8.37000e+02 2.27910e+03
170 8.37000e+02 2.35530e+03
171 8.62400e+02 2.35530e+03
172 8.87800e+02 2.35530e+03
173 9.13200e+02 2.35530e+03
174 9.38600e+02 2.35530e+03
175 9.64000e+02 2.35530e+03
176 9.89400e+02 2.35530e+03
177 1.01480e+03 2.35530e+03
178 1.04020e+03 2.35530e+03
179 1.06560e+03 2.35530e+03
180 1.09100e+03 2.35530e+03
181 1.11640e+03 2.35530e+03
182 1.14180e+03 2.35530e+03
183 1.16720e+03 2.35530e+03
184 1.16720e+03 2.50770e+03
185 1.14180e+03 2.50770e+03
186 1.11640e+03 2.50770e+03
187 1.09100e+03 2.50770e+03
188 1.06560e+03 2.50770e+03
189 1.04020e+03 2.50770e+03
190 1.01480e+03 2.50770e+03
191 9.89400e+02 2.50770e+03
192 9.64000e+02 2.50770e+03
193 9.38600e+02 2.50770e+03
194 9.13200e+02 2.50770e+03
195 8.87800e+02 2.50770e+03
196 8.62400e+02 2.50770e+03
197 8.37000e+02 2.50770e+03
198 8.37000e+02 2.58390e+03
199 8.62400e+02 2.58390e+03
200 8.87800e+02 2.58390e+03
201 9.13200e+02 2.58390e+03
202 9.38600e+02 2.58390e+03
203 9.64000e+02 2.58390e+03
204 9.89400e+02 2.58390e+03
205 1.01480e+03 2.58390e+03
206 1.04020e+03 2.58390e+03
207 1.06560e+03 2.58390e+03
208 1.09100e+03 2.58390e+03
209 1.11640e+03 2.58390e+03
210 1.14180e+03 2.58390e+03
211 1.16720e+03 2.58390e+03
212 1.24340e+03 2.58390e+03
213 1.16720e+03 2.73630e+03
214 1.14180e+03 2.73630e+03
215 1.11640e+03 2.73630e+03
216 1.09100e+03 2.73630e+03
217 1.06560e+03 2.73630e+03
218 1.04020e+03 2.73630e+03
219 1.01480e+03 2.73630e+03
220 9.89400e+02 2.73630e+03
221 9.64000e+02 2.73630e+03
222 9.38600e+02 2.73630e+03
223 9.13200e+02 2.73630e+03
224 8.87800e+02 2.73630e+03
225 8.62400e+02 2.73630e+03
226 8.37000e+02 2.73630e+03
227 9.64000e+02 2.88870e+03
228 1.04020e+03 2.88870e+03
229 1.14180e+03 2.88870e+03
230 1.21800e+03 2.88870e+03
231 1.21800e+03 2.91410e+03
232 1.14180e+03 2.91410e+03
233 1.04020e+03 2.91410e+03
234 9.64000e+02 2.91410e+03
235 9.13200e+02 2.91410e+03
236 9.64000e+02 2.93950e+03
237 1.04020e+03 2.93950e+03
238 1.14180e+03 2.93950e+03
239 1.21800e+03 2.93950e+03
240 1.21800e+03 2.96490e+03
241 1.14180e+03 2.96490e+03
242 1.04020e+03 2.96490e+03
243 9.64000e+02 2.96490e+03
244 9.13200e+02 2.96490e+03
245 9.64000e+02 2.99030e+03
246 1.04020e+03 2.99030e+03
247 1.14180e+03 2.99030e+03
248 1.21800e+03 2.99030e+03
249 1.21800e+03 3.01570e+03
250 1.14180e+03 3.01570e+03
251 1.04020e+03 3.01570e+03
252 9.64000e+02 3.01570e+03
253 9.64000e+02 3.04110e+03
254 1.04020e+03 3.04110e+03
255 1.14180e+03 3.04110e+03
256 1.21800e+03 3.04110e+03
257 1.21800e+03 3.06650e+03
258 1.14180e+03 3.06650e+03
259 1.04020e+03 3.06650e+03
260 9.64000e+02 3.06650e+03
261 1.29870e+03 8.74500e+02
262 1.32370e+03 8.74500e+02
263 1.34870e+03 8.74500e+02
264 1.37370e+03 8.74500e+02
265 1.39870e+03 8.74500e+02
266 1.42370e+03 8.74500e+02
267 1.44870e+03 8.74500e+02
268 1.47370e+03 8.74500e+02
269 1.49870e+03 8.74500e+02
270 1.52370e+03 8.74500e+02
271 1.54870e+03 8.74500e+02
272 1.57370e+03 8.74500e+02
273 1.59870e+03 8.74500e+02
274 1.62370e+03 8.74500e+02
275 1.64870e+03 8.74500e+02
276 1.67370e+03 8.74500e+02
277 1.69870e+03 8.74500e+02
278 1.72370e+03 8.74500e+02
279 1.74870e+03 8.74500e+02
280 1.77370e+03 8.74500e+02
281 1.79870e+03 8.74500e+02
282 1.82370e+03 8.74500e+02
283 1.84870e+03 8.74500e+02
284 1.87370e+03 8.74500e+02
285 1.89870e+03 8.74500e+02
286 1.92370e+03 8.74500e+02
287 1.94870e+03 8.74500e+02
288 1.97370e+03 8.74500e+02
289 1.99870e+03 8.74500e+02
290 2.02370e+03 8.74500e+02
291 2.04870e+03 8.74500e+02
292 2.07370e+03 8.74500e+02
293 2.09870e+03 8.74500e+02
294 2.12370e+03 8.74500e+02
295 2.14870e+03 8.74500e+02
296 2.17370e+03 8.74500e+02
297 2.19870e+03 8.74500e+02
298 2.24870e+03 8.74500e+02
299 1.29870e+03 8.99500e+02
300 1.34870e+03 8.99500e+02
301 1.39870e+03 8.99500e+02
302 1.44870e+03 8.99500e+02
303 1.49870e+03 8.99500e+02
304 1.54870e+03 8.99500e+02
305 1.59870e+03 8.99500e+02
306 1.64870e+03 8.99500e+02
307 1.69870e+03 8.99500e+02
308 1.74870e+03 8.99500e+02
309 1.79870e+03 8.99500e+02
310 1.84870e+03 8.99500e+02
311 1.89870e+03 8.99500e+02
312 1.94870e+03 8.99500e+02
313 1.99870e+03 8.99500e+02
314 2.04870e+03 8.99500e+02
315 2.09870e+03 8.99500e+02
316 2.14870e+03 8.99500e+02
317 2.19870e+03 8.99500e+02
318 2.24870e+03 8.99500e+02
319 2.29870e+03 8.99500e+02
320 2.34870e+03 8.99500e+02
321 2.39870e+03 8.99500e+02
322 2.44870e+03 8.99500e+02
323 2.49870e+03 8.99500e+02
324 2.54870e+03 8.99500e+02
325 2.59870e+03 8.99500e+02
326 2.64870e+03 8.99500e+02
327 2.69870e+03 8.99500e+02
328 2.74870e+03 8.99500e+02
329 2.79870e+03 8.99500e+02
330 2.84870e+03 8.99500e+02
331 2.89870e+03 8.99500e+02
332 2.94870e+03 8.99500e+02
333 2.99870e+03 8.99500e+02
334 3.04870e+03 8.99500e+02
335 3.09870e+03 8.99500e+02
336 3.14870e+03 8.99500e+02
337 3.19870e+03 8.99500e+02
338 3.24870e+03 8.99500e+02
339 3.29870e+03 8.99500e+02
340 3.34870e+03 8.99500e+02
341 3.39870e+03 8.99500e+02
342 3.44870e+03 8.99500e+02
343 3.42370e+03 9.24500e+02
344 3.37370e+03 9.24500e+02
345 3.32370e+03 9.24500e+02
346 3.27370e+03 9.24500e+02
347 3.22370e+03 9.24500e+02
348 3.17370e+03 9.24500e+02
349 3.12370e+03 9.24500e+02
350 3.07370e+03 9.24500e+02
351 3.02370e+03 9.24500e+02
352 2.97370e+03 9.24500e+02
353 2.92370e+03 9.24500e+02
354 2.87370e+03 9.24500e+02
355 2.82370e+03 9.24500e+02
356 2.77370e+03 9.24500e+02
357 2.72370e+03 9.24500e+02
358 2.67370e+03 9.24500e+02
359 2.62370e+03 9.24500e+02
360 2.57370e+03 9.24500e+02
361 2.44870e+03 9.24500e+02
362 2.39870e+03 9.24500e+02
363 2.34870e+03 9.24500e+02
364 2.29870e+03 9.24500e+02
365 2.17370e+03 9.24500e+02
366 2.12370e+03 9.24500e+02
367 2.07370e+03 9.24500e+02
368 2.02370e+03 9.24500e+02
369 1.97370e+03 9.24500e+02
370 1.92370e+03 9.24500e+02
371 1.87370e+03 9.24500e+02
372 1.82370e+03 9.24500e+02
373 1.77370e+03 9.24500e+02
374 1.72370e+03 9.24500e+02
375 1.67370e+03 9.24500e+02
376 1.62370e+03 9.24500e+02
377 1.57370e+03 9.24500e+02
378 1.52370e+03 9.24500e+02
379 1.47370e+03 9.24500e+02
380 1.42370e+03 9.24500e+02
381 1.37370e+03 9.24500e+02
382 1.32370e+03 9.24500e+02
383 2.29870e+03 9.49500e+02
384 2.34870e+03 9.49500e+02
385 2.39870e+03 9.49500e+02
386 2.44870e+03 9.49500e+02
387 2.67850e+03 9.96400e+02
388 2.20220e+03 9.96400e+02
389 1.52280e+03 1.08530e+03
390 1.39580e+03 1.11070e+03
391 1.47200e+03 1.11070e+03
392 1.57360e+03 1.11070e+03
393 1.64980e+03 1.11070e+03
394 2.10700e+03 1.11070e+03
395 2.18320e+03 1.11070e+03
396 2.28480e+03 1.11070e+03
397 2.36100e+03 1.11070e+03
398 2.36100e+03 1.13610e+03
399 2.28480e+03 1.13610e+03
400 2.18320e+03 1.13610e+03
401 2.10700e+03 1.13610e+03
402 2.00540e+03 1.13610e+03
403 1.92920e+03 1.13610e+03
404 1.82760e+03 1.13610e+03
405 1.75140e+03 1.13610e+03
406 1.64980e+03 1.13610e+03
407 1.57360e+03 1.13610e+03
408 1.52280e+03 1.13610e+03
409 1.47200e+03 1.13610e+03
410 1.39580e+03 1.13610e+03
411 1.39580e+03 1.16150e+03
412 1.47200e+03 1.16150e+03
413 1.57360e+03 1.16150e+03
414 1.64980e+03 1.16150e+03
415 1.75140e+03 1.16150e+03
416 1.82760e+03 1.16150e+03
417 1.92920e+03 1.16150e+03
418 2.00540e+03 1.16150e+03
419 2.10700e+03 1.16150e+03
420 2.18320e+03 1.16150e+03
421 2.28480e+03 1.16150e+03
422 2.36100e+03 1.16150e+03
423 2.86900e+03 1.18690e+03
424 2.81820e+03 1.18690e+03
425 2.76740e+03 1.18690e+03
426 2.71660e+03 1.18690e+03
427 2.36100e+03 1.18690e+03
428 2.28480e+03 1.18690e+03
429 2.18320e+03 1.18690e+03
430 2.10700e+03 1.18690e+03
431 2.00540e+03 1.18690e+03
432 1.92920e+03 1.18690e+03
433 1.82760e+03 1.18690e+03
434 1.75140e+03 1.18690e+03
435 1.64980e+03 1.18690e+03
436 1.57360e+03 1.18690e+03
437 1.47200e+03 1.18690e+03
438 1.39580e+03 1.18690e+03
439 1.39580e+03 1.21230e+03
440 1.47200e+03 1.21230e+03
441 1.57360e+03 1.21230e+03
442 1.64980e+03 1.21230e+03
443 1.75140e+03 1.21230e+03
444 1.82760e+03 1.21230e+03
445 1.92920e+03 1.21230e+03
446 2.00540e+03 1.21230e+03
447 2.10700e+03 1.21230e+03
448 2.18320e+03 1.21230e+03
449 2.28480e+03 1.21230e+03
450 2.36100e+03 1.21230e+03
451 2.36100e+03 1.23770e+03
452 2.28480e+03 1.23770e+03
453 2.18320e+03 1.23770e+03
454 2.10700e+03 1.23770e+03
455 2.00540e+03 1.23770e+03
456 1.92920e+03 1.23770e+03
457 1.82760e+03 1.23770e+03
458 1.75140e+03 1.23770e+03
459 1.64980e+03 1.23770e+03
460 1.57360e+03 1.23770e+03
461 1.47200e+03 1.23770e+03
462 1.39580e+03 1.23770e+03
463 1.39580e+03 1.26310e+03
464 1.47200e+03 1.26310e+03
465 1.57360e+03 1.26310e+03
466 1.64980e+03 1.26310e+03
467 1.75140e+03 1.26310e+03
468 1.82760e+03 1.26310e+03
469 1.92920e+03 1.26310e+03
470 2.00540e+03 1.26310e+03
471 2.10700e+03 1.26310e+03
472 2.18320e+03 1.26310e+03
473 2.28480e+03 1.26310e+03
474 2.36100e+03 1.26310e+03
475 2.43720e+03 1.26310e+03
476 2.51340e+03 1.26310e+03
477 2.36100e+03 1.28850e+03
478 2.28480e+03 1.28850e+03
479 2.18320e+03 1.28850e+03
480 2.10700e+03 1.28850e+03
481 2.00540e+03 1.28850e+03
482 1.92920e+03 1.28850e+03
483 1.82760e+03 1.28850e+03
484 1.75140e+03 1.28850e+03
485 1.64980e+03 1.28850e+03
486 1.57360e+03 1.28850e+03
487 1.47200e+03 1.28850e+03
488 1.39580e+03 1.28850e+03
489 2.43720e+03 1.31390e+03
490 2.51340e+03 1.31390e+03
491 2.74200e+03 1.31390e+03
492 2.76740e+03 1.31390e+03
493 2.84360e+03 1.31390e+03
494 2.86900e+03 1.31390e+03
495 2.86900e+03 1.36470e+03
496 2.81820e+03 1.36470e+03
497 2.76740e+03 1.36470e+03
498 2.71660e+03 1.36470e+03
499 1.85300e+03 1.36470e+03
500 1.75140e+03 1.36470e+03
501 1.85300e+03 1.39010e+03
502 1.75140e+03 1.39010e+03
503 1.64980e+03 1.39010e+03
504 1.57360e+03 1.39010e+03
505 1.47200e+03 1.39010e+03
506 1.39580e+03 1.39010e+03
507 1.39580e+03 1.41550e+03
508 1.47200e+03 1.41550e+03
509 1.57360e+03 1.41550e+03
510 1.64980e+03 1.41550e+03
511 1.75140e+03 1.41550e+03
512 1.85300e+03 1.41550e+03
513 1.92920e+03 1.41550e+03
514 2.00540e+03 1.41550e+03
515 2.10700e+03 1.41550e+03
516 2.18320e+03 1.41550e+03
517 2.28480e+03 1.41550e+03
518 2.36100e+03 1.41550e+03
519 2.46260e+03 1.41550e+03
520 2.53880e+03 1.41550e+03
521 2.53880e+03 1.44090e+03
522 2.46260e+03 1.44090e+03
523 2.36100e+03 1.44090e+03
524 2.28480e+03 1.44090e+03
525 2.18320e+03 1.44090e+03
526 2.10700e+03 1.44090e+03
527 2.00540e+03 1.44090e+03
528 1.92920e+03 1.44090e+03
529 1.85300e+03 1.44090e+03
530 1.75140e+03 1.44090e+03
531 1.64980e+03 1.44090e+03
532 1.57360e+03 1.44090e+03
533 1.47200e+03 1.44090e+03
534 1.39580e+03 1.44090e+03
535 1.39580e+03 1.46630e+03
536 1.47200e+03 1.46630e+03
537 1.57360e+03 1.46630e+03
538 1.64980e+03 1.46630e+03
539 1.75140e+03 1.46630e+03
540 1.85300e+03 1.46630e+03
541 1.92920e+03 1.46630e+03
542 2.00540e+03 1.46630e+03
543 2.10700e+03 1.46630e+03
544 2.18320e+03 1.46630e+03
545 2.28480e+03 1.46630e+03
546 2.36100e+03 1.46630e+03
547 2.46260e+03 1.46630e+03
548 2.53880e+03 1.46630e+03
549 2.86900e+03 1.49170e+03
550 2.84360e+03 1.49170e+03
551 2.76740e+03 1.49170e+03
552 2.74200e+03 1.49170e+03
553 2.53880e+03 1.49170e+03
554 2.46260e+03 1.49170e+03
555 2.36100e+03 1.49170e+03
556 2.28480e+03 1.49170e+03
557 2.18320e+03 1.49170e+03
558 2.10700e+03 1.49170e+03
559 2.00540e+03 1.49170e+03
560 1.92920e+03 1.49170e+03
561 1.85300e+03 1.49170e+03
562 1.75140e+03 1.49170e+03
563 1.64980e+03 1.49170e+03
564 1.57360e+03 1.49170e+03
565 1.47200e+03 1.49170e+03
566 1.39580e+03 1.49170e+03
567 1.39580e+03 1.51710e+03
568 1.47200e+03 1.51710e+03
569 1.57360e+03 1.51710e+03
570 1.64980e+03 1.51710e+03
571 1.92920e+03 1.51710e+03
572 2.00540e+03 1.51710e+03
573 2.10700e+03 1.51710e+03
574 2.18320e+03 1.51710e+03
575 2.28480e+03 1.51710e+03
576 2.36100e+03 1.51710e+03
577 2.46260e+03 1.51710e+03
578 2.53880e+03 1.51710e+03
579 2.53880e+03 1.54250e+03
580 2.46260e+03 1.54250e+03
581 2.36100e+03 1.54250e+03
582 2.28480e+03 1.54250e+03
583 2.18320e+03 1.54250e+03
584 2.10700e+03 1.54250e+03
585 2.00540e+03 1.54250e+03
586 1.92920e+03 1.54250e+03
587 1.64980e+03 1.54250e+03
588 1.57360e+03 1.54250e+03
589 1.47200e+03 1.54250e+03
590 1.39580e+03 1.54250e+03
591 1.39580e+03 1.56790e+03
592 1.47200e+03 1.56790e+03
593 1.57360e+03 1.56790e+03
594 1.64980e+03 1.56790e+03
595 1.92920e+03 1.56790e+03
596 2.00540e+03 1.56790e+03
597 2.10700e+03 1.56790e+03
598 2.18320e+03 1.56790e+03
599 2.28480e+03 1.56790e+03
600 2.36100e+03 1.56790e+03
601 2.46260e+03 1.56790e+03
602 2.53880e+03 1.56790e+03
603 2.53880e+03 1.69490e+03
604 2.46260e+03 1.69490e+03
605 2.18320e+03 1.69490e+03
606 2.10700e+03 1.69490e+03
607 1.64980e+03 1.69490e+03
608 1.57360e+03 1.69490e+03
609 1.47200e+03 1.69490e+03
610 1.39580e+03 1.69490e+03
611 1.39580e+03 1.72030e+03
612 1.47200e+03 1.72030e+03
613 1.57360e+03 1.72030e+03
614 1.64980e+03 1.72030e+03
615 1.92920e+03 1.72030e+03
616 2.00540e+03 1.72030e+03
617 2.10700e+03 1.72030e+03
618 2.18320e+03 1.72030e+03
619 2.28480e+03 1.72030e+03
620 2.36100e+03 1.72030e+03
621 2.46260e+03 1.72030e+03
622 2.53880e+03 1.72030e+03
623 2.64040e+03 1.72030e+03
624 2.71660e+03 1.72030e+03
625 3.96120e+03 1.74570e+03
626 3.88500e+03 1.74570e+03
627 3.83420e+03 1.74570e+03
628 3.75800e+03 1.74570e+03
629 3.70720e+03 1.74570e+03
630 3.63100e+03 1.74570e+03
631 3.58020e+03 1.74570e+03
632 3.50400e+03 1.74570e+03
633 3.45320e+03 1.74570e+03
634 3.37700e+03 1.74570e+03
635 3.32620e+03 1.74570e+03
636 3.25000e+03 1.74570e+03
637 3.19920e+03 1.74570e+03
638 3.12300e+03 1.74570e+03
639 3.07220e+03 1.74570e+03
640 2.99600e+03 1.74570e+03
641 2.89440e+03 1.74570e+03
642 2.71660e+03 1.74570e+03
643 2.64040e+03 1.74570e+03
644 2.53880e+03 1.74570e+03
645 2.46260e+03 1.74570e+03
646 2.36100e+03 1.74570e+03
647 2.28480e+03 1.74570e+03
648 2.18320e+03 1.74570e+03
649 2.10700e+03 1.74570e+03
650 2.00540e+03 1.74570e+03
651 1.92920e+03 1.74570e+03
652 1.64980e+03 1.74570e+03
653 1.57360e+03 1.74570e+03
654 1.47200e+03 1.74570e+03
655 1.39580e+03 1.74570e+03
656 1.39580e+03 1.77110e+03
657 1.47200e+03 1.77110e+03
658 1.57360e+03 1.77110e+03
659 1.64980e+03 1.77110e+03
660 1.92920e+03 1.77110e+03
661 2.00540e+03 1.77110e+03
662 2.10700e+03 1.77110e+03
663 2.18320e+03 1.77110e+03
664 2.28480e+03 1.77110e+03
665 2.36100e+03 1.77110e+03
666 2.46260e+03 1.77110e+03
667 2.53880e+03 1.77110e+03
668 2.64040e+03 1.77110e+03
669 2.71660e+03 1.77110e+03
670 3.96120e+03 1.79650e+03
671 3.88500e+03 1.79650e+03
672 3.83420e+03 1.79650e+03
673 3.75800e+03 1.79650e+03
674 3.70720e+03 1.79650e+03
675 3.63100e+03 1.79650e+03
676 3.58020e+03 1.79650e+03
677 3.50400e+03 1.79650e+03
678 3.45320e+03 1.79650e+03
679 3.37700e+03 1.79650e+03
680 3.32620e+03 1.79650e+03
681 3.25000e+03 1.79650e+03
682 3.19920e+03 1.79650e+03
683 3.12300e+03 1.79650e+03
684 3.07220e+03 1.79650e+03
685 2.99600e+03 1.79650e+03
686 2.89440e+03 1.79650e+03
687 2.71660e+03 1.79650e+03
688 2.64040e+03 1.79650e+03
689 2.53880e+03 1.79650e+03
690 2.46260e+03 1.79650e+03
691 2.36100e+03 1.79650e+03
692 2.28480e+03 1.79650e+03
693 2.18320e+03 1.79650e+03
694 2.10700e+03 1.79650e+03
695 2.00540e+03 1.79650e+03
696 1.92920e+03 1.79650e+03
697 1.64980e+03 1.79650e+03
698 1.57360e+03 1.79650e+03
699 1.47200e+03 1.79650e+03
700 1.39580e+03 1.79650e+03
701 1.39580e+03 1.82190e+03
702 1.47200e+03 1.82190e+03
703 1.57360e+03 1.82190e+03
704 1.64980e+03 1.82190e+03
705 1.92920e+03 1.82190e+03
706 2.00540e+03 1.82190e+03
707 2.10700e+03 1.82190e+03
708 2.18320e+03 1.82190e+03
709 2.28480e+03 1.82190e+03
710 2.36100e+03 1.82190e+03
711 2.46260e+03 1.82190e+03
712 2.53880e+03 1.82190e+03
713 2.64040e+03 1.82190e+03
714 2.71660e+03 1.82190e+03
715 2.95790e+03 1.82190e+03
716 3.96120e+03 1.84730e+03
717 3.88500e+03 1.84730e+03
718 3.83420e+03 1.84730e+03
719 3.75800e+03 1.84730e+03
720 3.70720e+03 1.84730e+03
721 3.63100e+03 1.84730e+03
722 3.58020e+03 1.84730e+03
723 3.50400e+03 1.84730e+03
724 3.45320e+03 1.84730e+03
725 3.37700e+03 1.84730e+03
726 3.32620e+03 1.84730e+03
727 3.25000e+03 1.84730e+03
728 3.19920e+03 1.84730e+03
729 3.12300e+03 1.84730e+03
730 3.07220e+03 1.84730e+03
731 2.99600e+03 1.84730e+03
732 2.81820e+03 1.84730e+03
733 2.71660e+03 1.84730e+03
734 2.64040e+03 1.84730e+03
735 2.53880e+03 1.84730e+03
736 2.46260e+03 1.84730e+03
737 2.36100e+03 1.84730e+03
738 2.28480e+03 1.84730e+03
739 2.18320e+03 1.84730e+03
740 2.10700e+03 1.84730e+03
741 2.00540e+03 1.84730e+03
742 1.92920e+03 1.84730e+03
743 1.64980e+03 1.84730e+03
744 1.57360e+03 1.84730e+03
745 1.47200e+03 1.84730e+03
746 1.39580e+03 1.84730e+03
747 1.39580e+03 1.87270e+03
748 1.47200e+03 1.87270e+03
749 1.57360e+03 1.87270e+03
750 1.64980e+03 1.87270e+03
751 1.92920e+03 1.87270e+03
752 2.00540e+03 1.87270e+03
753 2.10700e+03 1.87270e+03
754 2.18320e+03 1.87270e+03
755 2.28480e+03 1.87270e+03
756 2.36100e+03 1.87270e+03
757 2.46260e+03 1.87270e+03
758 2.53880e+03 1.87270e+03
759 2.64040e+03 1.87270e+03
760 2.71660e+03 1.87270e+03
761 2.89440e+03 1.91080e+03
762 2.86900e+03 1.92350e+03
763 2.95790e+03 1.92350e+03
764 2.99600e+03 1.92350e+03
765 3.07220e+03 1.92350e+03
766 3.12300e+03 1.92350e+03
767 3.19920e+03 1.92350e+03
768 3.25000e+03 1.92350e+03
769 3.32620e+03 1.92350e+03
770 3.37700e+03 1.92350e+03
771 3.45320e+03 1.92350e+03
772 3.50400e+03 1.92350e+03
773 3.58020e+03 1.92350e+03
774 3.63100e+03 1.92350e+03
775 3.70720e+03 1.92350e+03
776 3.75800e+03 1.92350e+03
777 3.83420e+03 1.92350e+03
778 3.88500e+03 1.92350e+03
779 3.96120e+03 1.92350e+03
780 2.89440e+03 1.93620e+03
781 2.81820e+03 1.94890e+03
782 3.07220e+03 1.96160e+03
783 2.53880e+03 1.97430e+03
784 2.64040e+03 1.97430e+03
785 2.71660e+03 1.97430e+03
786 3.75800e+03 1.97430e+03
787 3.14840e+03 1.99970e+03
788 2.99600e+03 1.99970e+03
789 2.91980e+03 1.99970e+03
790 2.84360e+03 1.99970e+03
791 2.71660e+03 1.99970e+03
792 2.64040e+03 1.99970e+03
793 2.28480e+03 1.99970e+03
794 2.13240e+03 1.99970e+03
795 2.03080e+03 1.99970e+03
796 1.87840e+03 1.99970e+03
797 1.76410e+03 1.99970e+03
798 1.68790e+03 1.99970e+03
799 1.54820e+03 1.99970e+03
800 1.39580e+03 1.99970e+03
801 1.39580e+03 2.02510e+03
802 1.54820e+03 2.02510e+03
803 1.68790e+03 2.02510e+03
804 1.76410e+03 2.02510e+03
805 1.87840e+03 2.02510e+03
806 2.03080e+03 2.02510e+03
807 2.13240e+03 2.02510e+03
808 2.28480e+03 2.02510e+03
809 2.53880e+03 2.02510e+03
810 2.64040e+03 2.02510e+03
811 2.71660e+03 2.02510e+03
812 2.84360e+03 2.02510e+03
813 2.91980e+03 2.02510e+03
814 3.14840e+03 2.05050e+03
815 2.99600e+03 2.05050e+03
816 2.91980e+03 2.05050e+03
817 2.84360e+03 2.05050e+03
818 2.71660e+03 2.05050e+03
819 2.64040e+03 2.05050e+03
820 2.28480e+03 2.05050e+03
821 2.13240e+03 2.05050e+03
822 2.03080e+03 2.05050e+03
823 1.87840e+03 2.05050e+03
824 1.76410e+03 2.05050e+03
825 1.68790e+03 2.05050e+03
826 1.54820e+03 2.05050e+03
827 1.39580e+03 2.05050e+03
828 1.39580e+03 2.07590e+03
829 1.54820e+03 2.07590e+03
830 1.68790e+03 2.07590e+03
831 1.76410e+03 2.07590e+03
832 1.87840e+03 2.07590e+03
833 2.03080e+03 2.07590e+03
834 2.13240e+03 2.07590e+03
835 2.28480e+03 2.07590e+03
836 3.75800e+03 2.07590e+03
837 3.07220e+03 2.08860e+03
838 2.53880e+03 2.10130e+03
839 2.46260e+03 2.10130e+03
840 2.28480e+03 2.10130e+03
841 2.13240e+03 2.10130e+03
842 2.03080e+03 2.10130e+03
843 1.87840e+03 2.10130e+03
844 1.76410e+03 2.10130e+03
845 1.68790e+03 2.10130e+03
846 1.54820e+03 2.10130e+03
847 1.39580e+03 2.10130e+03
848 1.39580e+03 2.12670e+03
849 1.54820e+03 2.12670e+03
850 1.68790e+03 2.12670e+03
851 1.76410e+03 2.12670e+03
852 1.87840e+03 2.12670e+03
853 2.03080e+03 2.12670e+03
854 2.13240e+03 2.12670e+03
855 2.28480e+03 2.12670e+03
856 2.46260e+03 2.12670e+03
857 2.53880e+03 2.12670e+03
858 2.64040e+03 2.12670e+03
859 2.71660e+03 2.12670e+03
860 3.07220e+03 2.12670e+03
861 3.12300e+03 2.12670e+03
862 3.75800e+03 2.12670e+03
863 3.68180e+03 2.15210e+03
864 3.63100e+03 2.15210e+03
865 2.71660e+03 2.15210e+03
866 2.64040e+03 2.15210e+03
867 2.53880e+03 2.15210e+03
868 2.46260e+03 2.15210e+03
869 2.28480e+03 2.15210e+03
870 2.13240e+03 2.15210e+03
871 2.03080e+03 2.15210e+03
872 1.87840e+03 2.15210e+03
873 1.76410e+03 2.15210e+03
874 1.68790e+03 2.15210e+03
875 1.54820e+03 2.15210e+03
876 1.39580e+03 2.15210e+03
877 1.39580e+03 2.17750e+03
878 1.54820e+03 2.17750e+03
879 1.87840e+03 2.17750e+03
880 2.03080e+03 2.17750e+03
881 2.13240e+03 2.17750e+03
882 2.28480e+03 2.17750e+03
883 2.46260e+03 2.17750e+03
884 2.53880e+03 2.17750e+03
885 2.64040e+03 2.17750e+03
886 2.71660e+03 2.17750e+03
887 2.71660e+03 2.20290e+03
888 2.64040e+03 2.20290e+03
889 2.53880e+03 2.20290e+03
890 2.46260e+03 2.20290e+03
891 2.28480e+03 2.20290e+03
892 2.13240e+03 2.20290e+03
893 2.03080e+03 2.20290e+03
894 1.87840e+03 2.20290e+03
895 1.54820e+03 2.20290e+03
896 1.39580e+03 2.20290e+03
897 1.39580e+03 2.22830e+03
898 1.54820e+03 2.22830e+03
899 1.87840e+03 2.22830e+03
900 2.03080e+03 2.22830e+03
901 2.13240e+03 2.22830e+03
902 2.28480e+03 2.22830e+03
903 2.46260e+03 2.22830e+03
904 2.53880e+03 2.22830e+03
905 2.64040e+03 2.22830e+03
906 2.71660e+03 2.22830e+03
907 3.75800e+03 2.25370e+03
908 3.12300e+03 2.25370e+03
909 3.07220e+03 2.25370e+03
910 2.71660e+03 2.25370e+03
911 2.64040e+03 2.25370e+03
912 2.53880e+03 2.25370e+03
913 2.46260e+03 2.25370e+03
914 2.28480e+03 2.25370e+03
915 2.13240e+03 2.25370e+03
916 2.03080e+03 2.25370e+03
917 1.87840e+03 2.25370e+03
918 1.54820e+03 2.25370e+03
919 1.39580e+03 2.25370e+03
920 1.39580e+03 2.27910e+03
921 1.54820e+03 2.27910e+03
922 1.87840e+03 2.27910e+03
923 2.03080e+03 2.27910e+03
924 2.13240e+03 2.27910e+03
925 2.28480e+03 2.27910e+03
926 2.46260e+03 2.27910e+03
927 2.53880e+03 2.27910e+03
928 2.64040e+03 2.27910e+03
929 2.71660e+03 2.27910e+03
930 3.65640e+03 2.27910e+03
931 3.68180e+03 2.27910e+03
932 2.71660e+03 2.30450e+03
933 2.64040e+03 2.30450e+03
934 2.53880e+03 2.30450e+03
935 2.46260e+03 2.30450e+03
936 2.28480e+03 2.30450e+03
937 2.13240e+03 2.30450e+03
938 2.03080e+03 2.30450e+03
939 1.87840e+03 2.30450e+03
940 1.75140e+03 2.30450e+03
941 1.67520e+03 2.30450e+03
942 1.54820e+03 2.30450e+03
943 1.39580e+03 2.30450e+03
944 1.39580e+03 2.32990e+03
945 1.54820e+03 2.32990e+03
946 1.67520e+03 2.32990e+03
947 1.75140e+03 2.32990e+03
948 1.87840e+03 2.32990e+03
949 2.03080e+03 2.32990e+03
950 2.13240e+03 2.32990e+03
951 2.28480e+03 2.32990e+03
952 2.46260e+03 2.32990e+03
953 2.53880e+03 2.32990e+03
954 2.64040e+03 2.32990e+03
955 2.71660e+03 2.32990e+03
956 3.75800e+03 2.35530e+03
957 2.28480e+03 2.35530e+03
958 2.13240e+03 2.35530e+03
959 2.03080e+03 2.35530e+03
960 1.87840e+03 2.35530e+03
961 1.75140e+03 2.35530e+03
962 1.67520e+03 2.35530e+03
963 1.54820e+03 2.35530e+03
964 1.39580e+03 2.35530e+03
965 1.39580e+03 2.38070e+03
966 1.54820e+03 2.38070e+03
967 1.67520e+03 2.38070e+03
968 1.75140e+03 2.38070e+03
969 1.87840e+03 2.38070e+03
970 2.03080e+03 2.38070e+03
971 2.13240e+03 2.38070e+03
972 2.28480e+03 2.38070e+03
973 2.28480e+03 2.40610e+03
974 2.13240e+03 2.40610e+03
975 2.03080e+03 2.40610e+03
976 1.87840e+03 2.40610e+03
977 1.75140e+03 2.40610e+03
978 1.67520e+03 2.40610e+03
979 1.54820e+03 2.40610e+03
980 1.39580e+03 2.40610e+03
981 1.31960e+03 2.41880e+03
982 1.39580e+03 2.43150e+03
983 1.54820e+03 2.43150e+03
984 1.67520e+03 2.43150e+03
985 1.75140e+03 2.43150e+03
986 1.87840e+03 2.43150e+03
987 2.03080e+03 2.43150e+03
988 2.13240e+03 2.43150e+03
989 2.28480e+03 2.43150e+03
990 2.64040e+03 2.43150e+03
991 2.71660e+03 2.43150e+03
992 3.75800e+03 2.45690e+03
993 2.71660e+03 2.45690e+03
994 2.64040e+03 2.45690e+03
995 2.28480e+03 2.45690e+03
996 2.13240e+03 2.45690e+03
997 2.03080e+03 2.45690e+03
998 1.87840e+03 2.45690e+03
999 1.75140e+03 2.45690e+03
1000 1.67520e+03 2.45690e+03
1001 1.54820e+03 2.45690e+03
1002 1.39580e+03 2.45690e+03
1003 1.31960e+03 2.46960e+03
1004 1.39580e+03 2.48230e+03
1005 1.54820e+03 2.48230e+03
1006 1.67520e+03 2.48230e+03
1007 1.75140e+03 2.48230e+03
1008 1.87840e+03 2.48230e+03
1009 2.03080e+03 2.48230e+03
1010 2.13240e+03 2.48230e+03
1011 2.28480e+03 2.48230e+03
1012 2.64040e+03 2.48230e+03
1013 2.71660e+03 2.48230e+03
1014 2.64040e+03 2.50770e+03
1015 2.71660e+03 2.50770e+03
1016 3.75800e+03 2.50770e+03
1017 2.71660e+03 2.53310e+03
1018 2.64040e+03 2.53310e+03
1019 2.64040e+03 2.55850e+03
1020 2.71660e+03 2.55850e+03
1021 2.64040e+03 2.58390e+03
1022 2.71660e+03 2.58390e+03
1023 3.63100e+03 2.58390e+03
1024 3.68180e+03 2.58390e+03
1025 2.71660e+03 2.60930e+03
1026 2.64040e+03 2.60930e+03
1027 3.75800e+03 2.63470e+03
1028 2.86900e+03 2.63470e+03
1029 2.71660e+03 2.63470e+03
1030 2.64040e+03 2.63470e+03
1031 2.28480e+03 2.63470e+03
1032 2.13240e+03 2.63470e+03
1033 2.03080e+03 2.63470e+03
1034 1.87840e+03 2.63470e+03
1035 1.80220e+03 2.63470e+03
1036 1.64980e+03 2.63470e+03
1037 1.54820e+03 2.63470e+03
1038 1.39580e+03 2.63470e+03
1039 1.39580e+03 2.66010e+03
1040 1.54820e+03 2.66010e+03
1041 1.64980e+03 2.66010e+03
1042 1.80220e+03 2.66010e+03
1043 1.87840e+03 2.66010e+03
1044 2.03080e+03 2.66010e+03
1045 2.13240e+03 2.66010e+03
1046 2.28480e+03 2.66010e+03
1047 2.64040e+03 2.66010e+03
1048 2.71660e+03 2.66010e+03
1049 2.28480e+03 2.68550e+03
1050 2.13240e+03 2.68550e+03
1051 2.03080e+03 2.68550e+03
1052 1.87840e+03 2.68550e+03
1053 1.80220e+03 2.68550e+03
1054 1.64980e+03 2.68550e+03
1055 1.54820e+03 2.68550e+03
1056 1.39580e+03 2.68550e+03
1057 1.24340e+03 2.68550e+03
1058 1.39580e+03 2.71090e+03
1059 1.54820e+03 2.71090e+03
1060 1.64980e+03 2.71090e+03
1061 1.80220e+03 2.71090e+03
1062 1.87840e+03 2.71090e+03
1063 2.03080e+03 2.71090e+03
1064 2.13240e+03 2.71090e+03
1065 2.28480e+03 2.71090e+03
1066 3.65640e+03 2.71090e+03
1067 3.68180e+03 2.71090e+03
1068 2.86900e+03 2.73630e+03
1069 2.53880e+03 2.73630e+03
1070 2.46260e+03 2.73630e+03
1071 2.28480e+03 2.73630e+03
1072 2.13240e+03 2.73630e+03
1073 2.03080e+03 2.73630e+03
1074 1.87840e+03 2.73630e+03
1075 1.80220e+03 2.73630e+03
1076 1.64980e+03 2.73630e+03
1077 1.54820e+03 2.73630e+03
1078 1.39580e+03 2.73630e+03
1079 1.39580e+03 2.76170e+03
1080 1.54820e+03 2.76170e+03
1081 1.64980e+03 2.76170e+03
1082 1.80220e+03 2.76170e+03
1083 1.87840e+03 2.76170e+03
1084 2.03080e+03 2.76170e+03
1085 2.13240e+03 2.76170e+03
1086 2.28480e+03 2.76170e+03
1087 2.46260e+03 2.76170e+03
1088 2.53880e+03 2.76170e+03
1089 2.71660e+03 2.78710e+03
1090 2.64040e+03 2.78710e+03
1091 2.53880e+03 2.78710e+03
1092 2.46260e+03 2.78710e+03
1093 2.28480e+03 2.78710e+03
1094 2.13240e+03 2.78710e+03
1095 2.03080e+03 2.78710e+03
1096 1.87840e+03 2.78710e+03
1097 1.80220e+03 2.78710e+03
1098 1.64980e+03 2.78710e+03
1099 1.54820e+03 2.78710e+03
1100 1.39580e+03 2.78710e+03
1101 1.39580e+03 2.81250e+03
1102 1.54820e+03 2.81250e+03
1103 1.64980e+03 2.81250e+03
1104 1.80220e+03 2.81250e+03
1105 1.87840e+03 2.81250e+03
1106 2.03080e+03 2.81250e+03
1107 2.13240e+03 2.81250e+03
1108 2.28480e+03 2.81250e+03
1109 2.46260e+03 2.81250e+03
1110 2.53880e+03 2.81250e+03
1111 2.64040e+03 2.81250e+03
1112 2.71660e+03 2.81250e+03
1113 3.45320e+03 2.83790e+03
1114 3.35160e+03 2.83790e+03
1115 2.71660e+03 2.83790e+03
1116 2.64040e+03 2.83790e+03
1117 2.53880e+03 2.83790e+03
1118 2.46260e+03 2.83790e+03
1119 2.28480e+03 2.83790e+03
1120 2.13240e+03 2.83790e+03
1121 2.03080e+03 2.83790e+03
1122 1.87840e+03 2.83790e+03
1123 1.80220e+03 2.83790e+03
1124 1.64980e+03 2.83790e+03
1125 1.54820e+03 2.83790e+03
1126 1.39580e+03 2.83790e+03
1127 1.39580e+03 2.86330e+03
1128 1.54820e+03 2.86330e+03
1129 1.64980e+03 2.86330e+03
1130 1.80220e+03 2.86330e+03
1131 1.87840e+03 2.86330e+03
1132 2.03080e+03 2.86330e+03
1133 2.13240e+03 2.86330e+03
1134 2.28480e+03 2.86330e+03
1135 2.46260e+03 2.86330e+03
1136 2.53880e+03 2.86330e+03
1137 2.64040e+03 2.86330e+03
1138 2.71660e+03 2.86330e+03
1139 2.86900e+03 2.88870e+03
1140 2.81820e+03 2.88870e+03
1141 2.71660e+03 2.88870e+03
1142 2.64040e+03 2.88870e+03
1143 2.53880e+03 2.88870e+03
1144 2.46260e+03 2.88870e+03
1145 2.28480e+03 2.88870e+03
1146 2.13240e+03 2.88870e+03
1147 2.03080e+03 2.88870e+03
1148 1.87840e+03 2.88870e+03
1149 1.80220e+03 2.88870e+03
1150 1.64980e+03 2.88870e+03
1151 1.54820e+03 2.88870e+03
1152 1.39580e+03 2.88870e+03
1153 1.31960e+03 2.90140e+03
1154 1.29420e+03 2.90140e+03
1155 1.26880e+03 2.90140e+03
1156 1.39580e+03 2.91410e+03
1157 1.54820e+03 2.91410e+03
1158 1.64980e+03 2.91410e+03
1159 1.80220e+03 2.91410e+03
1160 1.87840e+03 2.91410e+03
1161 2.03080e+03 2.91410e+03
1162 2.13240e+03 2.91410e+03
1163 2.28480e+03 2.91410e+03
1164 2.46260e+03 2.91410e+03
1165 2.53880e+03 2.91410e+03
1166 2.64040e+03 2.91410e+03
1167 2.71660e+03 2.91410e+03
1168 2.71660e+03 2.93950e+03
1169 2.64040e+03 2.93950e+03
1170 2.53880e+03 2.93950e+03
1171 2.46260e+03 2.93950e+03
1172 2.28480e+03 2.93950e+03
1173 2.13240e+03 2.93950e+03
1174 2.03080e+03 2.93950e+03
1175 1.87840e+03 2.93950e+03
1176 1.80220e+03 2.93950e+03
1177 1.64980e+03 2.93950e+03
1178 1.54820e+03 2.93950e+03
1179 1.39580e+03 2.93950e+03
1180 1.39580e+03 2.96490e+03
1181 1.54820e+03 2.96490e+03
1182 1.64980e+03 2.96490e+03
1183 1.80220e+03 2.96490e+03
1184 1.87840e+03 2.96490e+03
1185 2.03080e+03 2.96490e+03
1186 2.13240e+03 2.96490e+03
1187 2.28480e+03 2.96490e+03
1188 2.46260e+03 2.96490e+03
1189 2.53880e+03 2.96490e+03
1190 2.64040e+03 2.96490e+03
1191 2.71660e+03 2.96490e+03
1192 3.35160e+03 2.96490e+03
1193 3.45320e+03 2.96490e+03
1194 2.86900e+03 2.99030e+03
1195 2.81820e+03 2.99030e+03
1196 3.55480e+03 3.01570e+03
1197 3.58020e+03 3.01570e+03
1198 3.60560e+03 3.01570e+03
1199 3.63100e+03 3.01570e+03
1200 3.65640e+03 3.01570e+03
1201 3.68180e+03 3.01570e+03
1202 3.70720e+03 3.01570e+03
1203 3.73260e+03 3.01570e+03
1204 3.75800e+03 3.01570e+03
1205 3.78340e+03 3.01570e+03
1206 3.80880e+03 3.01570e+03
1207 3.83420e+03 3.01570e+03
1208 3.85960e+03 3.01570e+03
1209 3.45320e+03 3.04110e+03
1210 3.40240e+03 3.04110e+03
1211 3.32620e+03 3.04110e+03
1212 3.27540e+03 3.04110e+03
1213 1.52280e+03 3.04110e+03
1214 1.47200e+03 3.04110e+03
1215 3.55480e+03 3.06650e+03
1216 3.58020e+03 3.06650e+03
1217 3.60560e+03 3.06650e+03
1218 3.63100e+03 3.06650e+03
1219 3.65640e+03 3.06650e+03
1220 3.68180e+03 3.06650e+03
1221 3.70720e+03 3.06650e+03
1222 3.73260e+03 3.06650e+03
1223 3.75800e+03 3.06650e+03
1224 3.78340e+03 3.06650e+03
1225 3.80880e+03 3.06650e+03
1226 3.83420e+03 3.06650e+03
1227 3.85960e+03 3.06650e+03
1228 2.49870e+03 8.74500e+02
1229 2.54870e+03 8.74500e+02
1230 2.57370e+03 8.74500e+02
1231 2.59870e+03 8.74500e+02
1232 2.62370e+03 8.74500e+02
1233 2.64870e+03 8.74500e+02
1234 2.67370e+03 8.74500e+02
1235 2.69870e+03 8.74500e+02
1236 2.72370e+03 8.74500e+02
1237 2.74870e+03 8.74500e+02
1238 2.77370e+03 8.74500e+02
1239 2.79870e+03 8.74500e+02
1240 2.82370e+03 8.74500e+02
1241 2.84870e+03 8.74500e+02
1242 2.87370e+03 8.74500e+02
1243 2.89870e+03 8.74500e+02
1244 2.92370e+03 8.74500e+02
1245 2.94870e+03 8.74500e+02
1246 2.97370e+03 8.74500e+02
1247 2.99870e+03 8.74500e+02
1248 3.02370e+03 8.74500e+02
1249 3.04870e+03 8.74500e+02
1250 3.07370e+03 8.74500e+02
1251 3.09870e+03 8.74500e+02
1252 3.12370e+03 8.74500e+02
1253 3.14870e+03 8.74500e+02
1254 3.17370e+03 8.74500e+02
1255 3.19870e+03 8.74500e+02
1256 3.22370e+03 8.74500e+02
1257 3.24870e+03 8.74500e+02
1258 3.27370e+03 8.74500e+02
1259 3.29870e+03 8.74500e+02
1260 3.32370e+03 8.74500e+02
1261 3.34870e+03 8.74500e+02
1262 3.37370e+03 8.74500e+02
1263 3.39870e+03 8.74500e+02
1264 3.42370e+03 8.74500e+02
1265 3.44870e+03 8.74500e+02
1266 3.55480e+03 9.07500e+02
1267 3.58020e+03 9.07500e+02
1268 3.60560e+03 9.07500e+02
1269 3.63100e+03 9.07500e+02
1270 3.65640e+03 9.07500e+02
1271 3.68180e+03 9.07500e+02
1272 3.70720e+03 9.07500e+02
1273 3.73260e+03 9.07500e+02
1274 3.75800e+03 9.07500e+02
1275 3.78340e+03 9.07500e+02
1276 3.80880e+03 9.07500e+02
1277 3.83420e+03 9.07500e+02
1278 3.85960e+03 9.07500e+02
1279 3.85960e+03 9.58300e+02
1280 3.83420e+03 9.58300e+02
1281 3.80880e+03 9.58300e+02
1282 3.78340e+03 9.58300e+02
1283 3.75800e+03 9.58300e+02
1284 3.73260e+03 9.58300e+02
1285 3.70720e+03 9.58300e+02
1286 3.68180e+03 9.58300e+02
1287 3.65640e+03 9.58300e+02
1288 3.63100e+03 9.58300e+02
1289 3.60560e+03 9.58300e+02
1290 3.58020e+03 9.58300e+02
1291 3.55480e+03 9.58300e+02
EOF
